max:+ d0 + d1 ;

 /* server 0*/
f0s0u0 <= x0s0 + 3000000.0 u0;
f1s0u0 <= x1s0 + 2400000.0 u0;
f3s0u0 <= x3s0 + 2400000.0 u0;
0+ f0s0u0+ f1s0u0+ f3s0u0= a0u0;
b0t0 >= 10000000 t0 - 100.00000000000001;
b0t0 >= 0;
b0t0 = a0u0;
d0 = t0 - u0;
d0 >= 0;

 /* server 1*/
f0s1u1 <= x0s1 + 3000000.0 u1;
f1s1u1 <= x1s1 + 2400000.0 u1;
f2s1u1 <= x2s1 + 2400000.0 u1;
+ f0s1u1+ f1s1u1<= 0 + 10000000 u1;
0+ f0s1u1+ f1s1u1+ f2s1u1= a1u1;
b1t1 >= 10000000 t1 - 100.00000000000001;
b1t1 >= 0;
b1t1 = a1u1;
d1 = t1 - u1;
d1 >= 0;
0+ f0s0u0+ f3s0u0<= 0 + 10000000u0;

 /* sigma variables*/
x0s0 = 57.7875;
x0s1 <= x0s0 + 3000000.0 d0;
x1s0 = 8;
x1s1 <= x1s0 + 2400000.0 d0;
x2s1 = 8;
x3s0 = 78.1059;
